pnma_1x1x1                              
   1.00000000000000     
     8.0000000000000000    0.0000000000000000    0.0000000000000000
     0.0000000000000000    8.5000000000000000    0.0000000000000000
     0.0000000000000000    0.0000000000000000   11.6000000000000000
   Cs   Hf   W    Au   Pt   I 
    4    1   1     1    1  12
Direct
  0.5400509141877491  0.0970111522113749  0.7499979795708615
  0.4599490858122507  0.9029888287886274  0.2500020204291387
  0.0421984286224134  0.4006252681522880  0.2499929614926304
 -0.0421984286224131  0.5993747618477151  0.7500070385073687
  0.0000000000000000  0.0000000000000000  0.5000000000000000
  0.5000000000000000  0.5000000000000000  0.5000000000000000
  0.0000000000000000  0.0000000000000000 -0.0000000000000000
  0.5000000000000000  0.5000000000000000 -0.0000000000000000
  0.3184417140280462  0.1872676546809136  0.4389904889589933
  0.6815582859719540  0.8127323453190868  0.5610095110410073
  0.1767757020603275  0.6919857223822373  0.4385328848290729
  0.8232242979396731  0.3080142776177617  0.5614671151709273
  0.6815545527956195  0.8127370498655576 -0.0610147267278322
  0.3184454472043802  0.1872629501344422  0.0610147267278323
  0.8232161191152344  0.3080277526789580 -0.0614568041395255
  0.1767838808847657  0.6919722473210421  0.0614568041395254
 -0.1250806838557245  0.0339243361245325  0.2499937147278883
  0.1250806838557245 -0.0339243441245332  0.7500062852721123
  0.3634997532452856  0.4588419874427839  0.7499985108924494
  0.6365002467547143  0.5411580125572162  0.2500014891075503
